50
24471

95 21
629 724
479 896
751 211
704 321
112 495
740 502
708 607
359 730
377 986
653 145
127 940
916 90
678 545
114 940
791 755
77 841
639 777
134 591
877 608
744 473
848 480
223 755
332 371
813 446
883 763
549 44
304 266
553 884
841 119
618 620
97 577
639 647
261 279
954 276
989 918
932 104
891 597
83 637
651 538
794 704
996 323
172 916
980 264
1000 131
874 312
924 332
756 556
916 377
333 159
